; --full-saturate-quant --inst-when=full-last-call --inst-no-entail --term-db-mode=relevant --random-seed=1 --lang=smt2 --tlimit 686
;(set-option :produce-unsat-cores true)
(set-logic ALL_SUPPORTED)
(declare-sort A$ 0)
(declare-sort Nat$ 0)
(declare-sort A_set$ 0)
(declare-sort A_nat_fun$ 0)
(declare-datatypes () ((A_tree$ (leaf$ (select$ Nat$) (selecta$ A$)) (innerNode$ (selectb$ Nat$) (selectc$ A_tree$) (selectd$ A_tree$)))))
(declare-fun a$ () A$)
(declare-fun b$ () A$)
(declare-fun c$ () A$)
(declare-fun t$ () A_tree$)
(declare-fun u$ () A_tree$)
(declare-fun freq$ (A_tree$) A_nat_fun$)
(declare-fun member$ (A$ A_set$) Bool)
(declare-fun optimum$ (A_tree$) Bool)
(declare-fun sibling$ (A_tree$ A$) A$)
(declare-fun alphabet$ (A_tree$) A_set$)
(declare-fun consistent$ (A_tree$) Bool)
(declare-fun swapFourSyms$ (A_tree$ A$ A$ A$ A$) A_tree$)
(assert (! (not (= (sibling$ (swapFourSyms$ u$ a$ b$ c$ (sibling$ u$ c$)) a$) b$)) :named a0))
(assert (! (consistent$ u$) :named a1))
(assert (! (not (= a$ b$)) :named a2))
(assert (! (member$ c$ (alphabet$ u$)) :named a3))
(assert (! (member$ a$ (alphabet$ u$)) :named a4))
(assert (! (member$ b$ (alphabet$ u$)) :named a5))
(assert (! (not (= (sibling$ u$ c$) c$)) :named a6))
(assert (! (consistent$ t$) :named a7))
(assert (! (optimum$ t$) :named a8))
(assert (! (member$ (sibling$ u$ c$) (alphabet$ u$)) :named a9))
(assert (! (consistent$ (swapFourSyms$ u$ a$ b$ c$ (sibling$ u$ c$))) :named a10))
(assert (! (= (alphabet$ (swapFourSyms$ u$ a$ b$ c$ (sibling$ u$ c$))) (alphabet$ u$)) :named a11))
(assert (! (member$ a$ (alphabet$ t$)) :named a12))
(assert (! (not (member$ b$ (alphabet$ t$))) :named a13))
(assert (! (= (freq$ (swapFourSyms$ u$ a$ b$ c$ (sibling$ u$ c$))) (freq$ u$)) :named a14))
(assert (! (forall ((?v0 A_tree$) (?v1 A$)) (=> (consistent$ ?v0) (= (sibling$ ?v0 (sibling$ ?v0 ?v1)) ?v1))) :named a15))
(assert (! (forall ((?v0 A$) (?v1 A_tree$) (?v2 A$) (?v3 A$) (?v4 A$)) (=> (and (member$ ?v0 (alphabet$ ?v1)) (and (member$ ?v2 (alphabet$ ?v1)) (and (member$ ?v3 (alphabet$ ?v1)) (member$ ?v4 (alphabet$ ?v1))))) (= (alphabet$ (swapFourSyms$ ?v1 ?v0 ?v2 ?v3 ?v4)) (alphabet$ ?v1)))) :named a16))
(assert (! (forall ((?v0 A$) (?v1 A_tree$)) (! (=> (not (member$ ?v0 (alphabet$ ?v1))) (= (sibling$ ?v1 ?v0) ?v0)) :pattern ((sibling$ ?v1 ?v0)))) :named a17))
(check-sat)
;(get-unsat-core)
